(set-logic ALL)
(declare-fun var0 () String)
(assert (str.in_re var0 (re.++ (re.+ (re.* (str.to_re "0"))) (re.++ (re.* (re.+ (str.to_re "1"))) (re.++ (re.* (re.union (str.to_re "222") (str.to_re "333"))) (re.++ (re.union (re.* (str.to_re "4")) (re.union (str.to_re "555") (str.to_re "6"))) (re.++ (re.+ (re.* (str.to_re "777"))) (re.++ (re.union (re.union (str.to_re "8") (str.to_re "99")) (re.* (str.to_re "a"))) (re.++ (re.+ (re.union (str.to_re "bbb") (str.to_re "ccc"))) (re.++ (re.union (re.+ (str.to_re "ddd")) (re.union (str.to_re "ee") (str.to_re "ff"))) (re.++ (re.* (re.+ (str.to_re "g"))) (re.++ (re.* (re.union (str.to_re "h") (str.to_re "i"))) (re.++ (re.+ (re.union (str.to_re "jj") (str.to_re "kkk"))) (re.++ (re.union (re.* (str.to_re "lll")) (re.* (str.to_re "mm"))) (re.++ (re.* (re.* (str.to_re "nnn"))) (re.++ (re.* (re.* (str.to_re "ooo"))) (re.++ (re.union (re.* (str.to_re "ppp")) (re.* (str.to_re "qq"))) (re.++ (re.+ (re.* (str.to_re "r"))) (re.++ (re.union (re.union (str.to_re "s") (str.to_re "t")) (re.union (str.to_re "u") (str.to_re "v"))) (re.++ (re.* (re.union (str.to_re "w") (str.to_re "x"))) (re.++ (re.* (re.* (str.to_re "y"))) (re.++ (re.union (re.* (str.to_re "zz")) (re.union (str.to_re "AAA") (str.to_re "BB"))) (re.++ (re.* (re.+ (str.to_re "CC"))) (re.++ (re.+ (re.* (str.to_re "D"))) (re.++ (re.+ (re.union (str.to_re "EE") (str.to_re "FFF"))) (re.++ (re.* (re.+ (str.to_re "GGG"))) (re.* (re.* (str.to_re "H")))))))))))))))))))))))))))))
(check-sat)